p cnf 157 570
-1 -33 0
-2 -33 0
1 2 33 0
1 2 -34 0
-1 -2 -34 0
-1 2 34 0
1 -2 34 0
33 -35 0
-3 -35 0
3 -33 35 0
3 -33 -36 0
-3 33 -36 0
3 33 36 0
-3 -33 36 0
35 -37 0
-4 -37 0
4 -35 37 0
4 -35 -38 0
-4 35 -38 0
4 35 38 0
-4 -35 38 0
37 -39 0
-5 -39 0
5 -37 39 0
5 -37 -40 0
-5 37 -40 0
5 37 40 0
-5 -37 40 0
39 -41 0
-6 -41 0
6 -39 41 0
6 -39 -42 0
-6 39 -42 0
6 39 42 0
-6 -39 42 0
41 -43 0
-7 -43 0
7 -41 43 0
7 -41 -44 0
-7 41 -44 0
7 41 44 0
-7 -41 44 0
43 -45 0
-8 -45 0
8 -43 45 0
8 -43 -46 0
-8 43 -46 0
8 43 46 0
-8 -43 46 0
4 -47 0
1 -47 0
-1 -4 47 0
-1 -4 -48 0
1 4 -48 0
1 -4 48 0
-1 4 48 0
-2 -5 49 0
-5 -47 49 0
-2 -47 49 0
2 5 -49 0
5 47 -49 0
2 47 -49 0
5 -49 -50 0
2 -49 -50 0
47 -49 -50 0
-5 49 50 0
-2 49 50 0
-47 49 50 0
-2 -5 -47 50 0
2 5 47 -50 0
-3 -6 51 0
-6 -49 51 0
-3 -49 51 0
3 6 -51 0
6 49 -51 0
3 49 -51 0
6 -51 -52 0
3 -51 -52 0
49 -51 -52 0
-6 51 52 0
-3 51 52 0
-49 51 52 0
-3 -6 -49 52 0
3 6 49 -52 0
-4 -7 53 0
-7 -51 53 0
-4 -51 53 0
4 7 -53 0
7 51 -53 0
4 51 -53 0
7 -53 -54 0
4 -53 -54 0
51 -53 -54 0
-7 53 54 0
-4 53 54 0
-51 53 54 0
-4 -7 -51 54 0
4 7 51 -54 0
-5 -8 55 0
-8 -53 55 0
-5 -53 55 0
5 8 -55 0
8 53 -55 0
5 53 -55 0
8 -55 -56 0
5 -55 -56 0
53 -55 -56 0
-8 55 56 0
-5 55 56 0
-53 55 56 0
-5 -8 -53 56 0
5 8 53 -56 0
6 -57 0
55 -57 0
-6 -55 57 0
-6 -55 -58 0
6 55 -58 0
-6 55 58 0
6 -55 58 0
7 -59 0
57 -59 0
-7 -57 59 0
-7 -57 -60 0
7 57 -60 0
-7 57 60 0
7 -57 60 0
8 -61 0
59 -61 0
-8 -59 61 0
-8 -59 -62 0
8 59 -62 0
-8 59 62 0
8 -59 62 0
-1 -63 0
-2 -63 0
1 2 63 0
1 2 -64 0
-1 -2 -64 0
-1 2 64 0
1 -2 64 0
63 -65 0
-3 -65 0
3 -63 65 0
3 -63 -66 0
-3 63 -66 0
3 63 66 0
-3 -63 66 0
65 -67 0
-48 -67 0
48 -65 67 0
48 -65 -68 0
-48 65 -68 0
48 65 68 0
-48 -65 68 0
67 -69 0
-50 -69 0
50 -67 69 0
50 -67 -70 0
-50 67 -70 0
50 67 70 0
-50 -67 70 0
69 -71 0
-52 -71 0
52 -69 71 0
52 -69 -72 0
-52 69 -72 0
52 69 72 0
-52 -69 72 0
71 -73 0
-54 -73 0
54 -71 73 0
54 -71 -74 0
-54 71 -74 0
54 71 74 0
-54 -71 74 0
73 -75 0
-56 -75 0
56 -73 75 0
56 -73 -76 0
-56 73 -76 0
56 73 76 0
-56 -73 76 0
75 -77 0
-58 -77 0
58 -75 77 0
58 -75 -78 0
-58 75 -78 0
58 75 78 0
-58 -75 78 0
77 -79 0
-60 -79 0
60 -77 79 0
60 -77 -80 0
-60 77 -80 0
60 77 80 0
-60 -77 80 0
79 -81 0
-62 -81 0
62 -79 81 0
62 -79 -82 0
-62 79 -82 0
62 79 82 0
-62 -79 82 0
81 -83 0
-61 -83 0
61 -81 83 0
61 -81 -84 0
-61 81 -84 0
61 81 84 0
-61 -81 84 0
-9 -85 0
-10 -85 0
9 10 85 0
9 10 -86 0
-9 -10 -86 0
-9 10 86 0
9 -10 86 0
85 -87 0
-11 -87 0
11 -85 87 0
11 -85 -88 0
-11 85 -88 0
11 85 88 0
-11 -85 88 0
87 -89 0
-12 -89 0
12 -87 89 0
12 -87 -90 0
-12 87 -90 0
12 87 90 0
-12 -87 90 0
89 -91 0
-13 -91 0
13 -89 91 0
13 -89 -92 0
-13 89 -92 0
13 89 92 0
-13 -89 92 0
91 -93 0
-14 -93 0
14 -91 93 0
14 -91 -94 0
-14 91 -94 0
14 91 94 0
-14 -91 94 0
93 -95 0
-15 -95 0
15 -93 95 0
15 -93 -96 0
-15 93 -96 0
15 93 96 0
-15 -93 96 0
95 -97 0
-16 -97 0
16 -95 97 0
16 -95 -98 0
-16 95 -98 0
16 95 98 0
-16 -95 98 0
10 -99 0
9 -99 0
-9 -10 99 0
-9 -10 -100 0
9 10 -100 0
9 -10 100 0
-9 10 100 0
-10 -11 101 0
-11 -99 101 0
-10 -99 101 0
10 11 -101 0
11 99 -101 0
10 99 -101 0
11 -101 -102 0
10 -101 -102 0
99 -101 -102 0
-11 101 102 0
-10 101 102 0
-99 101 102 0
-10 -11 -99 102 0
10 11 99 -102 0
-11 -12 103 0
-12 -101 103 0
-11 -101 103 0
11 12 -103 0
12 101 -103 0
11 101 -103 0
12 -103 -104 0
11 -103 -104 0
101 -103 -104 0
-12 103 104 0
-11 103 104 0
-101 103 104 0
-11 -12 -101 104 0
11 12 101 -104 0
-12 -13 105 0
-13 -103 105 0
-12 -103 105 0
12 13 -105 0
13 103 -105 0
12 103 -105 0
13 -105 -106 0
12 -105 -106 0
103 -105 -106 0
-13 105 106 0
-12 105 106 0
-103 105 106 0
-12 -13 -103 106 0
12 13 103 -106 0
-13 -14 107 0
-14 -105 107 0
-13 -105 107 0
13 14 -107 0
14 105 -107 0
13 105 -107 0
14 -107 -108 0
13 -107 -108 0
105 -107 -108 0
-14 107 108 0
-13 107 108 0
-105 107 108 0
-13 -14 -105 108 0
13 14 105 -108 0
-14 -15 109 0
-15 -107 109 0
-14 -107 109 0
14 15 -109 0
15 107 -109 0
14 107 -109 0
15 -109 -110 0
14 -109 -110 0
107 -109 -110 0
-15 109 110 0
-14 109 110 0
-107 109 110 0
-14 -15 -107 110 0
14 15 107 -110 0
-15 -16 111 0
-16 -109 111 0
-15 -109 111 0
15 16 -111 0
16 109 -111 0
15 109 -111 0
16 -111 -112 0
15 -111 -112 0
109 -111 -112 0
-16 111 112 0
-15 111 112 0
-109 111 112 0
-15 -16 -109 112 0
15 16 109 -112 0
16 -113 0
111 -113 0
-16 -111 113 0
-16 -111 -114 0
16 111 -114 0
-16 111 114 0
16 -111 114 0
-9 -115 0
-100 -115 0
9 100 115 0
9 100 -116 0
-9 -100 -116 0
-9 100 116 0
9 -100 116 0
115 -117 0
-102 -117 0
102 -115 117 0
102 -115 -118 0
-102 115 -118 0
102 115 118 0
-102 -115 118 0
117 -119 0
-104 -119 0
104 -117 119 0
104 -117 -120 0
-104 117 -120 0
104 117 120 0
-104 -117 120 0
119 -121 0
-106 -121 0
106 -119 121 0
106 -119 -122 0
-106 119 -122 0
106 119 122 0
-106 -119 122 0
121 -123 0
-108 -123 0
108 -121 123 0
108 -121 -124 0
-108 121 -124 0
108 121 124 0
-108 -121 124 0
123 -125 0
-110 -125 0
110 -123 125 0
110 -123 -126 0
-110 123 -126 0
110 123 126 0
-110 -123 126 0
125 -127 0
-112 -127 0
112 -125 127 0
112 -125 -128 0
-112 125 -128 0
112 125 128 0
-112 -125 128 0
127 -129 0
-114 -129 0
114 -127 129 0
114 -127 -130 0
-114 127 -130 0
114 127 130 0
-114 -127 130 0
129 -131 0
-113 -131 0
113 -129 131 0
113 -129 -132 0
-113 129 -132 0
113 129 132 0
-113 -129 132 0
1 -133 0
102 -133 0
-1 -102 133 0
-1 -102 -134 0
1 102 -134 0
-1 102 134 0
1 -102 134 0
-2 -104 135 0
-2 -133 135 0
-104 -133 135 0
2 104 -135 0
2 133 -135 0
104 133 -135 0
2 -135 -136 0
104 -135 -136 0
133 -135 -136 0
-2 135 136 0
-104 135 136 0
-133 135 136 0
-2 -104 -133 136 0
2 104 133 -136 0
-3 -106 137 0
-3 -135 137 0
-106 -135 137 0
3 106 -137 0
3 135 -137 0
106 135 -137 0
3 -137 -138 0
106 -137 -138 0
135 -137 -138 0
-3 137 138 0
-106 137 138 0
-135 137 138 0
-3 -106 -135 138 0
3 106 135 -138 0
-48 -108 139 0
-48 -137 139 0
-108 -137 139 0
48 108 -139 0
48 137 -139 0
108 137 -139 0
48 -139 -140 0
108 -139 -140 0
137 -139 -140 0
-48 139 140 0
-108 139 140 0
-137 139 140 0
-48 -108 -137 140 0
48 108 137 -140 0
-50 -110 141 0
-50 -139 141 0
-110 -139 141 0
50 110 -141 0
50 139 -141 0
110 139 -141 0
50 -141 -142 0
110 -141 -142 0
139 -141 -142 0
-50 141 142 0
-110 141 142 0
-139 141 142 0
-50 -110 -139 142 0
50 110 139 -142 0
-52 -112 143 0
-52 -141 143 0
-112 -141 143 0
52 112 -143 0
52 141 -143 0
112 141 -143 0
52 -143 -144 0
112 -143 -144 0
141 -143 -144 0
-52 143 144 0
-112 143 144 0
-141 143 144 0
-52 -112 -141 144 0
52 112 141 -144 0
-54 -114 145 0
-54 -143 145 0
-114 -143 145 0
54 114 -145 0
54 143 -145 0
114 143 -145 0
54 -145 -146 0
114 -145 -146 0
143 -145 -146 0
-54 145 146 0
-114 145 146 0
-143 145 146 0
-54 -114 -143 146 0
54 114 143 -146 0
-56 -113 147 0
-56 -145 147 0
-113 -145 147 0
56 113 -147 0
56 145 -147 0
113 145 -147 0
56 -147 -148 0
113 -147 -148 0
145 -147 -148 0
-56 147 148 0
-113 147 148 0
-145 147 148 0
-56 -113 -145 148 0
56 113 145 -148 0
58 -149 0
147 -149 0
-58 -147 149 0
-58 -147 -150 0
58 147 -150 0
-58 147 150 0
58 -147 150 0
60 -151 0
149 -151 0
-60 -149 151 0
-60 -149 -152 0
60 149 -152 0
-60 149 152 0
60 -149 152 0
62 -153 0
151 -153 0
-62 -151 153 0
-62 -151 -154 0
62 151 -154 0
-62 151 154 0
62 -151 154 0
61 -155 0
153 -155 0
-61 -153 155 0
-61 -153 -156 0
61 153 -156 0
-61 153 156 0
61 -153 156 0
9 -157 0
-100 -157 0
-134 -157 0
-136 -157 0
138 -157 0
-140 -157 0
-142 -157 0
-144 -157 0
-146 -157 0
-148 -157 0
-150 -157 0
-152 -157 0
-154 -157 0
-155 -157 0
-156 -157 0
-9 100 134 136 -138 140 142 144 146 148 150 152 154 155 156 157 0
157 0
c main::$tmp::return_value_nondet_char!0@1#1 17 18 19 20 21 22 23 24
c symex::nondet1 9 10 11 12 13 14 15 16
c symex::nondet0 1 2 3 4 5 6 7 8
c main::$tmp::return_value_nondet_char$0!0@1#2 9 10 11 12 13 14 15 16
c __CPROVER_rounding_mode!0#1 FALSE FALSE FALSE FALSE FALSE FALSE FALSE FALSE FALSE FALSE FALSE FALSE FALSE FALSE FALSE FALSE FALSE FALSE FALSE FALSE FALSE FALSE FALSE FALSE FALSE FALSE FALSE FALSE FALSE FALSE FALSE FALSE
c main::$tmp::return_value_nondet_char$0!0@1#1 25 26 27 28 29 30 31 32
c __CPROVER_memory_leak#1 FALSE FALSE FALSE FALSE FALSE FALSE FALSE FALSE FALSE FALSE FALSE FALSE FALSE FALSE FALSE FALSE FALSE FALSE FALSE FALSE FALSE FALSE FALSE FALSE FALSE FALSE FALSE FALSE FALSE FALSE FALSE FALSE FALSE FALSE FALSE FALSE FALSE FALSE FALSE FALSE FALSE FALSE FALSE FALSE FALSE FALSE FALSE FALSE FALSE FALSE FALSE FALSE FALSE FALSE FALSE FALSE FALSE FALSE FALSE FALSE FALSE FALSE FALSE FALSE
c __CPROVER_max_malloc_size#1 FALSE FALSE FALSE FALSE FALSE FALSE FALSE FALSE FALSE FALSE FALSE FALSE FALSE FALSE FALSE FALSE FALSE FALSE FALSE FALSE FALSE FALSE FALSE FALSE FALSE FALSE FALSE FALSE FALSE FALSE FALSE FALSE FALSE FALSE FALSE FALSE FALSE FALSE FALSE FALSE FALSE FALSE FALSE FALSE FALSE FALSE FALSE FALSE FALSE FALSE FALSE FALSE FALSE FALSE FALSE TRUE FALSE FALSE FALSE FALSE FALSE FALSE FALSE FALSE
c __CPROVER_deallocated#1 FALSE FALSE FALSE FALSE FALSE FALSE FALSE FALSE FALSE FALSE FALSE FALSE FALSE FALSE FALSE FALSE FALSE FALSE FALSE FALSE FALSE FALSE FALSE FALSE FALSE FALSE FALSE FALSE FALSE FALSE FALSE FALSE FALSE FALSE FALSE FALSE FALSE FALSE FALSE FALSE FALSE FALSE FALSE FALSE FALSE FALSE FALSE FALSE FALSE FALSE FALSE FALSE FALSE FALSE FALSE FALSE FALSE FALSE FALSE FALSE FALSE FALSE FALSE FALSE
c main::$tmp::return_value_nondet_char!0@1#2 1 2 3 4 5 6 7 8
c __CPROVER_dead_object#1 FALSE FALSE FALSE FALSE FALSE FALSE FALSE FALSE FALSE FALSE FALSE FALSE FALSE FALSE FALSE FALSE FALSE FALSE FALSE FALSE FALSE FALSE FALSE FALSE FALSE FALSE FALSE FALSE FALSE FALSE FALSE FALSE FALSE FALSE FALSE FALSE FALSE FALSE FALSE FALSE FALSE FALSE FALSE FALSE FALSE FALSE FALSE FALSE FALSE FALSE FALSE FALSE FALSE FALSE FALSE FALSE FALSE FALSE FALSE FALSE FALSE FALSE FALSE FALSE
